
mapping with 16 threads...

 0:00:01.14 Mapping INCOV011-AC.extracted.fq.gz to NUC reference...

 0:12:09.09 Generating binary hit matrix.
0:12:09.13 Loading /labs/khatrilab/solomonb/covid/isb/optitype/INCOV011-AC_1.bam started. Number of HLA reads loaded (updated every thousand):
1K...2K...3K...4K...5K...6K...7K...8K...9K...10K...11K...12K...13K...14K...15K...16K...17K...18K...19K...20K...21K...22K...23K...24K...25K...26K...27K...28K...29K...30K...31K...32K...33K...34K...35K...36K...37K...38K...39K...40K...41K...42K...43K...44K...45K...46K...47K...48K...49K...50K...51K...52K...53K...54K...55K...56K...57K...58K...59K...60K...61K...62K...63K...64K...65K...66K...67K...68K...69K...70K...71K...72K...73K...74K...75K...76K...77K...78K...79K...80K...81K...82K...83K...84K...85K...86K...87K...88K...89K...90K...91K...92K...93K...94K...95K...96K...97K...98K...99K...100K...101K...102K...103K...104K...105K...106K...107K...108K...109K...110K...111K...112K...113K...114K...115K...116K...117K...118K...119K...120K...121K...122K...123K...124K...125K...126K...127K...128K...129K...130K...131K...132K...133K...134K...135K...136K...137K...138K...139K...140K...141K...142K...143K...144K...145K...146K...147K...148K...149K...150K...151K...152K...153K...154K...155K...156K...157K...158K...159K...160K...161K...162K...163K...164K...165K...166K...167K...168K...169K...170K...171K...172K...173K...174K...175K...176K...177K...178K...179K...180K...181K...182K...183K...184K...185K...186K...187K...188K...189K...190K...191K...192K...193K...194K...195K...196K...197K...198K...199K...200K...201K...202K...203K...204K...205K...206K...207K...208K...209K...210K...211K...212K...213K...214K...215K...216K...217K...218K...219K...220K...221K...222K...223K...224K...225K...226K...227K...228K...229K...230K...231K...232K...
 0:13:55.54 232618 reads loaded. Creating dataframe...
0:37:02.11 Dataframes created. Shape: 232618 x 7339, hits: 90743674 (90920538), sparsity: 1 in 18.78

 0:38:23.01 temporary pruning of identical rows and columns

 0:38:27.02 Size of mtx with unique rows and columns: (2420, 1561)
0:38:27.02 determining minimal set of non-overshadowed alleles

 0:38:50.67 Keeping only the minimal number of required alleles (686,)

 0:38:51.63 Creating compact model...

starting ilp solver with 1 threads...

 0:41:38.53 Initializing OptiType model...
GLPSOL: GLPK LP/MIP Solver, v4.57
Parameter(s) specified in the command line:
 --write /tmp/tmpbjIVuM.glpk.raw --wglp /tmp/tmpgf1vgn.glpk.glp --cpxlp /tmp/tmpIC8nj6.pyomo.lp
Reading problem data from '/tmp/tmpIC8nj6.pyomo.lp'...
/tmp/tmpIC8nj6.pyomo.lp:115004: warning: lower bound of variable 'x6811' redefined
/tmp/tmpIC8nj6.pyomo.lp:115004: warning: upper bound of variable 'x6811' redefined
6810 rows, 4088 columns, 87078 non-zeros
2386 integer variables, all of which are binary
117390 lines were read
Writing problem data to '/tmp/tmpgf1vgn.glpk.glp'...
109891 lines were written
GLPK Integer Optimizer, v4.57
6810 rows, 4088 columns, 87078 non-zeros
2386 integer variables, all of which are binary
Preprocessing...
1 hidden packing inequaliti(es) were detected
1489 hidden covering inequaliti(es) were detected
6808 rows, 4087 columns, 87075 non-zeros
2386 integer variables, all of which are binary
Scaling...
 A: min|aij| =  1.000e+00  max|aij| =  4.000e+00  ratio =  4.000e+00
Problem data seem to be well scaled
Constructing initial basis...
Size of triangular part is 6808
Solving LP relaxation...
GLPK Simplex Optimizer, v4.57
6808 rows, 4087 columns, 87075 non-zeros
      0: obj =  -0.000000000e+00 inf =   4.000e+00 (4)
      4: obj =  -0.000000000e+00 inf =   0.000e+00 (0)
*   500: obj =   1.641817380e+05 inf =   4.330e-15 (1563) 1
*  1000: obj =   1.988744430e+05 inf =   0.000e+00 (1282) 1
*  1500: obj =   2.005545870e+05 inf =   0.000e+00 (1011)
*  2000: obj =   2.007619200e+05 inf =   0.000e+00 (854)
*  2500: obj =   2.011129780e+05 inf =   0.000e+00 (611)
*  3000: obj =   2.015185810e+05 inf =   0.000e+00 (111)
*  3111: obj =   2.015988340e+05 inf =   0.000e+00 (0)
OPTIMAL LP SOLUTION FOUND
Integer optimization begins...
+  3111: mip =     not found yet <=              +inf        (1; 0)
+  3113: >>>>>   2.015987890e+05 <=   2.015987890e+05   0.0% (2; 0)
+  3113: mip =   2.015987890e+05 <=     tree is empty   0.0% (0; 3)
INTEGER OPTIMAL SOLUTION FOUND
Time used:   0.8 secs
Memory used: 18.4 Mb (19296577 bytes)
Writing MIP solution to '/tmp/tmpbjIVuM.glpk.raw'...
10900 lines were written

 0:41:50.04 Result dataframe has been constructed...
